;--------------------------------------------------------------------------
; Benchmark created with Zazu
; Benchmark: 		fermat_norm_inv1_3xlen2
; Created:   		2022-01-11 18:12
; Generator of the ideal: 
; 		 4*r - 4*r00 - 2*u00 + 2*u - 2*v + 2*v00 - u^2 + v^2 + u00^2 - v00^2
; Testing invariant: r^5*u^4*v^9*v00^2 - r^4*u^8*u00^2*v^8 + r^4*u^4*v^7*v00^2 + 2*r^6*u^6*u00*v^9 + 4*r^4*r00*u^4*v^7 + 4*r^4*r00*u^8*v^8 - 2*r^2*u^7*v^6 + 4*r^3*r00*u^2*v^7 - 2*r*u^4*v^6*v00 + 4*r^6*r00*u^6*v^9 - 2*r^4*u^5*v^7 - 4*r^5*u^4*v^7 - 2*r^4*u^9*v^8 + 2*r^3*u^6*v^9 + 2*r^3*u^2*u00*v^7 - 2*r^4*u^8*v^8*v00 - 4*r^3*u^6*v^6 - r^3*u^2*v^9 + 2*r^3*u^2*v^8 + 2*r^4*u^4*u00*v^7 - r*u^4*v^8 - r^2*u^6*v^8 + 2*r*u^4*v^7 + 2*r^2*u^6*v^7 + r^4*u^8*v^8*v00^2 - r^3*u^2*u00^2*v^7 - 2*r^6*u^7*v^9 - r^3*u^6*v^10 - 2*r^3*u^6*v^8*v00 - r^2*u^6*u00^2*v^6 + r^5*u^6*v^9 - 2*r^3*u^2*v^7*v00 + 2*r^4*u^8*v^9 - 2*r^5*u^5*v^9 - r^4*u^4*u00^2*v^7 - 2*r^6*u^6*v^9*v00 + 2*r^4*u^4*v^8 - r^4*u^4*v^9 + 2*r^5*u^4*u00*v^9 - 2*r^3*u^7*v^8 - 2*r^3*u^3*v^7 + 2*r^3*u^6*u00*v^8 - r^3*u^6*u00^2*v^8 - r*u^4*u00^2*v^6 - 2*r^5*u^4*v^9*v00 + 2*r*u^4*u00*v^6 - 2*r*u^5*v^6 - r^5*u^4*u00^2*v^9 + r^3*u^6*v^8*v00^2 + r^6*u^8*v^9 - r^5*u^4*v^11 + r^2*u^6*v^6*v00^2 + 2*r^5*u^4*v^10 - 4*r^6*u^4*v^9 - 2*r^4*u^4*v^7*v00 + 2*r^2*u^6*u00*v^6 + r^3*u^4*v^7 + r*u^4*v^6*v00^2 + r^3*u^8*v^8 + r^4*u^10*v^8 + 4*r*r00*u^4*v^6 + r^3*u^2*v^7*v00^2 - r^6*u^6*u00^2*v^9 - 4*r^7*u^6*v^9 - 4*r^2*u^4*v^6 + r*u^6*v^6 + r^2*u^8*v^6 - 4*r^5*u^8*v^8 - r^6*u^6*v^11 + 4*r^3*r00*u^6*v^8 + r^6*u^6*v^9*v00^2 + 2*r^6*u^6*v^10 - r^4*u^8*v^10 - 4*r^4*u^6*v^8 + r^4*u^6*v^7 + 4*r^2*r00*u^6*v^6 - 4*r^4*u^2*v^7 + 2*r^4*u^8*u00*v^8 - 2*r^2*u^6*v^6*v00 + 4*r^5*r00*u^4*v^9
;--------------------------------------------------------------------------

(set-logic NIA)
(set-option :produce-proofs true)

(declare-const r00 Int)
(declare-const u00 Int)
(declare-const v00 Int)

(assert 
	(exists
		((r Int) (u Int) (v Int))
		(and
			(= (- (+ (- (+ (- (+ (- (* 4 r) (* 4 r00) (* 2 u00)) (* 2 u)) (* 2 v)) (* 2 v00)) (* u u)) (* v v) (* u00 u00)) (* v00 v00)) 0)

			(or
				(not (= (+ (- (+ (- (+ (- (+ (- (+ (- (+ (- (+ (- (+ (- (+ (- (+ (- (+ (- (+ (- (+ (- (+ (- (+ (- (+ (- (+ (- (+ (- (+ (- (+ (- (* (- r v) (- r v) (- r v) (- r v) (- r v) u u u u (+ v 2) (+ v 2) (+ v 2) (+ v 2) (+ v 2) (+ v 2) (+ v 2) (+ v 2) (+ v 2) v00 v00) (* (- r v) (- r v) (- r v) (- r v) u u u u u u u u u00 u00 (+ v 2) (+ v 2) (+ v 2) (+ v 2) (+ v 2) (+ v 2) (+ v 2) (+ v 2))) (* (- r v) (- r v) (- r v) (- r v) u u u u (+ v 2) (+ v 2) (+ v 2) (+ v 2) (+ v 2) (+ v 2) (+ v 2) v00 v00) (* 2 (- r v) (- r v) (- r v) (- r v) (- r v) (- r v) u u u u u u u00 (+ v 2) (+ v 2) (+ v 2) (+ v 2) (+ v 2) (+ v 2) (+ v 2) (+ v 2) (+ v 2)) (* 4 (- r v) (- r v) (- r v) (- r v) r00 u u u u (+ v 2) (+ v 2) (+ v 2) (+ v 2) (+ v 2) (+ v 2) (+ v 2)) (* 4 (- r v) (- r v) (- r v) (- r v) r00 u u u u u u u u (+ v 2) (+ v 2) (+ v 2) (+ v 2) (+ v 2) (+ v 2) (+ v 2) (+ v 2))) (* 2 (- r v) (- r v) u u u u u u u (+ v 2) (+ v 2) (+ v 2) (+ v 2) (+ v 2) (+ v 2))) (* 4 (- r v) (- r v) (- r v) r00 u u (+ v 2) (+ v 2) (+ v 2) (+ v 2) (+ v 2) (+ v 2) (+ v 2))) (* 2 (- r v) u u u u (+ v 2) (+ v 2) (+ v 2) (+ v 2) (+ v 2) (+ v 2) v00)) (* 4 (- r v) (- r v) (- r v) (- r v) (- r v) (- r v) r00 u u u u u u (+ v 2) (+ v 2) (+ v 2) (+ v 2) (+ v 2) (+ v 2) (+ v 2) (+ v 2) (+ v 2))) (* 2 (- r v) (- r v) (- r v) (- r v) u u u u u (+ v 2) (+ v 2) (+ v 2) (+ v 2) (+ v 2) (+ v 2) (+ v 2)) (* 4 (- r v) (- r v) (- r v) (- r v) (- r v) u u u u (+ v 2) (+ v 2) (+ v 2) (+ v 2) (+ v 2) (+ v 2) (+ v 2)) (* 2 (- r v) (- r v) (- r v) (- r v) u u u u u u u u u (+ v 2) (+ v 2) (+ v 2) (+ v 2) (+ v 2) (+ v 2) (+ v 2) (+ v 2))) (* 2 (- r v) (- r v) (- r v) u u u u u u (+ v 2) (+ v 2) (+ v 2) (+ v 2) (+ v 2) (+ v 2) (+ v 2) (+ v 2) (+ v 2)) (* 2 (- r v) (- r v) (- r v) u u u00 (+ v 2) (+ v 2) (+ v 2) (+ v 2) (+ v 2) (+ v 2) (+ v 2))) (* 2 (- r v) (- r v) (- r v) (- r v) u u u u u u u u (+ v 2) (+ v 2) (+ v 2) (+ v 2) (+ v 2) (+ v 2) (+ v 2) (+ v 2) v00) (* 4 (- r v) (- r v) (- r v) u u u u u u (+ v 2) (+ v 2) (+ v 2) (+ v 2) (+ v 2) (+ v 2)) (* (- r v) (- r v) (- r v) u u (+ v 2) (+ v 2) (+ v 2) (+ v 2) (+ v 2) (+ v 2) (+ v 2) (+ v 2) (+ v 2))) (* 2 (- r v) (- r v) (- r v) u u (+ v 2) (+ v 2) (+ v 2) (+ v 2) (+ v 2) (+ v 2) (+ v 2) (+ v 2)) (* 2 (- r v) (- r v) (- r v) (- r v) u u u u u00 (+ v 2) (+ v 2) (+ v 2) (+ v 2) (+ v 2) (+ v 2) (+ v 2))) (* (- r v) u u u u (+ v 2) (+ v 2) (+ v 2) (+ v 2) (+ v 2) (+ v 2) (+ v 2) (+ v 2)) (* (- r v) (- r v) u u u u u u (+ v 2) (+ v 2) (+ v 2) (+ v 2) (+ v 2) (+ v 2) (+ v 2) (+ v 2))) (* 2 (- r v) u u u u (+ v 2) (+ v 2) (+ v 2) (+ v 2) (+ v 2) (+ v 2) (+ v 2)) (* 2 (- r v) (- r v) u u u u u u (+ v 2) (+ v 2) (+ v 2) (+ v 2) (+ v 2) (+ v 2) (+ v 2)) (* (- r v) (- r v) (- r v) (- r v) u u u u u u u u (+ v 2) (+ v 2) (+ v 2) (+ v 2) (+ v 2) (+ v 2) (+ v 2) (+ v 2) v00 v00)) (* (- r v) (- r v) (- r v) u u u00 u00 (+ v 2) (+ v 2) (+ v 2) (+ v 2) (+ v 2) (+ v 2) (+ v 2)) (* 2 (- r v) (- r v) (- r v) (- r v) (- r v) (- r v) u u u u u u u (+ v 2) (+ v 2) (+ v 2) (+ v 2) (+ v 2) (+ v 2) (+ v 2) (+ v 2) (+ v 2)) (* (- r v) (- r v) (- r v) u u u u u u (+ v 2) (+ v 2) (+ v 2) (+ v 2) (+ v 2) (+ v 2) (+ v 2) (+ v 2) (+ v 2) (+ v 2)) (* 2 (- r v) (- r v) (- r v) u u u u u u (+ v 2) (+ v 2) (+ v 2) (+ v 2) (+ v 2) (+ v 2) (+ v 2) (+ v 2) v00) (* (- r v) (- r v) u u u u u u u00 u00 (+ v 2) (+ v 2) (+ v 2) (+ v 2) (+ v 2) (+ v 2))) (* (- r v) (- r v) (- r v) (- r v) (- r v) u u u u u u (+ v 2) (+ v 2) (+ v 2) (+ v 2) (+ v 2) (+ v 2) (+ v 2) (+ v 2) (+ v 2))) (* 2 (- r v) (- r v) (- r v) u u (+ v 2) (+ v 2) (+ v 2) (+ v 2) (+ v 2) (+ v 2) (+ v 2) v00)) (* 2 (- r v) (- r v) (- r v) (- r v) u u u u u u u u (+ v 2) (+ v 2) (+ v 2) (+ v 2) (+ v 2) (+ v 2) (+ v 2) (+ v 2) (+ v 2))) (* 2 (- r v) (- r v) (- r v) (- r v) (- r v) u u u u u (+ v 2) (+ v 2) (+ v 2) (+ v 2) (+ v 2) (+ v 2) (+ v 2) (+ v 2) (+ v 2)) (* (- r v) (- r v) (- r v) (- r v) u u u u u00 u00 (+ v 2) (+ v 2) (+ v 2) (+ v 2) (+ v 2) (+ v 2) (+ v 2)) (* 2 (- r v) (- r v) (- r v) (- r v) (- r v) (- r v) u u u u u u (+ v 2) (+ v 2) (+ v 2) (+ v 2) (+ v 2) (+ v 2) (+ v 2) (+ v 2) (+ v 2) v00)) (* 2 (- r v) (- r v) (- r v) (- r v) u u u u (+ v 2) (+ v 2) (+ v 2) (+ v 2) (+ v 2) (+ v 2) (+ v 2) (+ v 2))) (* (- r v) (- r v) (- r v) (- r v) u u u u (+ v 2) (+ v 2) (+ v 2) (+ v 2) (+ v 2) (+ v 2) (+ v 2) (+ v 2) (+ v 2))) (* 2 (- r v) (- r v) (- r v) (- r v) (- r v) u u u u u00 (+ v 2) (+ v 2) (+ v 2) (+ v 2) (+ v 2) (+ v 2) (+ v 2) (+ v 2) (+ v 2))) (* 2 (- r v) (- r v) (- r v) u u u u u u u (+ v 2) (+ v 2) (+ v 2) (+ v 2) (+ v 2) (+ v 2) (+ v 2) (+ v 2)) (* 2 (- r v) (- r v) (- r v) u u u (+ v 2) (+ v 2) (+ v 2) (+ v 2) (+ v 2) (+ v 2) (+ v 2))) (* 2 (- r v) (- r v) (- r v) u u u u u u u00 (+ v 2) (+ v 2) (+ v 2) (+ v 2) (+ v 2) (+ v 2) (+ v 2) (+ v 2))) (* (- r v) (- r v) (- r v) u u u u u u u00 u00 (+ v 2) (+ v 2) (+ v 2) (+ v 2) (+ v 2) (+ v 2) (+ v 2) (+ v 2)) (* (- r v) u u u u u00 u00 (+ v 2) (+ v 2) (+ v 2) (+ v 2) (+ v 2) (+ v 2)) (* 2 (- r v) (- r v) (- r v) (- r v) (- r v) u u u u (+ v 2) (+ v 2) (+ v 2) (+ v 2) (+ v 2) (+ v 2) (+ v 2) (+ v 2) (+ v 2) v00)) (* 2 (- r v) u u u u u00 (+ v 2) (+ v 2) (+ v 2) (+ v 2) (+ v 2) (+ v 2))) (* 2 (- r v) u u u u u (+ v 2) (+ v 2) (+ v 2) (+ v 2) (+ v 2) (+ v 2)) (* (- r v) (- r v) (- r v) (- r v) (- r v) u u u u u00 u00 (+ v 2) (+ v 2) (+ v 2) (+ v 2) (+ v 2) (+ v 2) (+ v 2) (+ v 2) (+ v 2))) (* (- r v) (- r v) (- r v) u u u u u u (+ v 2) (+ v 2) (+ v 2) (+ v 2) (+ v 2) (+ v 2) (+ v 2) (+ v 2) v00 v00) (* (- r v) (- r v) (- r v) (- r v) (- r v) (- r v) u u u u u u u u (+ v 2) (+ v 2) (+ v 2) (+ v 2) (+ v 2) (+ v 2) (+ v 2) (+ v 2) (+ v 2))) (* (- r v) (- r v) (- r v) (- r v) (- r v) u u u u (+ v 2) (+ v 2) (+ v 2) (+ v 2) (+ v 2) (+ v 2) (+ v 2) (+ v 2) (+ v 2) (+ v 2) (+ v 2))) (* (- r v) (- r v) u u u u u u (+ v 2) (+ v 2) (+ v 2) (+ v 2) (+ v 2) (+ v 2) v00 v00) (* 2 (- r v) (- r v) (- r v) (- r v) (- r v) u u u u (+ v 2) (+ v 2) (+ v 2) (+ v 2) (+ v 2) (+ v 2) (+ v 2) (+ v 2) (+ v 2) (+ v 2))) (* 4 (- r v) (- r v) (- r v) (- r v) (- r v) (- r v) u u u u (+ v 2) (+ v 2) (+ v 2) (+ v 2) (+ v 2) (+ v 2) (+ v 2) (+ v 2) (+ v 2)) (* 2 (- r v) (- r v) (- r v) (- r v) u u u u (+ v 2) (+ v 2) (+ v 2) (+ v 2) (+ v 2) (+ v 2) (+ v 2) v00)) (* 2 (- r v) (- r v) u u u u u u u00 (+ v 2) (+ v 2) (+ v 2) (+ v 2) (+ v 2) (+ v 2)) (* (- r v) (- r v) (- r v) u u u u (+ v 2) (+ v 2) (+ v 2) (+ v 2) (+ v 2) (+ v 2) (+ v 2)) (* (- r v) u u u u (+ v 2) (+ v 2) (+ v 2) (+ v 2) (+ v 2) (+ v 2) v00 v00) (* (- r v) (- r v) (- r v) u u u u u u u u (+ v 2) (+ v 2) (+ v 2) (+ v 2) (+ v 2) (+ v 2) (+ v 2) (+ v 2)) (* (- r v) (- r v) (- r v) (- r v) u u u u u u u u u u (+ v 2) (+ v 2) (+ v 2) (+ v 2) (+ v 2) (+ v 2) (+ v 2) (+ v 2)) (* 4 (- r v) r00 u u u u (+ v 2) (+ v 2) (+ v 2) (+ v 2) (+ v 2) (+ v 2)) (* (- r v) (- r v) (- r v) u u (+ v 2) (+ v 2) (+ v 2) (+ v 2) (+ v 2) (+ v 2) (+ v 2) v00 v00)) (* (- r v) (- r v) (- r v) (- r v) (- r v) (- r v) u u u u u u u00 u00 (+ v 2) (+ v 2) (+ v 2) (+ v 2) (+ v 2) (+ v 2) (+ v 2) (+ v 2) (+ v 2)) (* 4 (- r v) (- r v) (- r v) (- r v) (- r v) (- r v) (- r v) u u u u u u (+ v 2) (+ v 2) (+ v 2) (+ v 2) (+ v 2) (+ v 2) (+ v 2) (+ v 2) (+ v 2)) (* 4 (- r v) (- r v) u u u u (+ v 2) (+ v 2) (+ v 2) (+ v 2) (+ v 2) (+ v 2))) (* (- r v) u u u u u u (+ v 2) (+ v 2) (+ v 2) (+ v 2) (+ v 2) (+ v 2)) (* (- r v) (- r v) u u u u u u u u (+ v 2) (+ v 2) (+ v 2) (+ v 2) (+ v 2) (+ v 2))) (* 4 (- r v) (- r v) (- r v) (- r v) (- r v) u u u u u u u u (+ v 2) (+ v 2) (+ v 2) (+ v 2) (+ v 2) (+ v 2) (+ v 2) (+ v 2)) (* (- r v) (- r v) (- r v) (- r v) (- r v) (- r v) u u u u u u (+ v 2) (+ v 2) (+ v 2) (+ v 2) (+ v 2) (+ v 2) (+ v 2) (+ v 2) (+ v 2) (+ v 2) (+ v 2))) (* 4 (- r v) (- r v) (- r v) r00 u u u u u u (+ v 2) (+ v 2) (+ v 2) (+ v 2) (+ v 2) (+ v 2) (+ v 2) (+ v 2)) (* (- r v) (- r v) (- r v) (- r v) (- r v) (- r v) u u u u u u (+ v 2) (+ v 2) (+ v 2) (+ v 2) (+ v 2) (+ v 2) (+ v 2) (+ v 2) (+ v 2) v00 v00) (* 2 (- r v) (- r v) (- r v) (- r v) (- r v) (- r v) u u u u u u (+ v 2) (+ v 2) (+ v 2) (+ v 2) (+ v 2) (+ v 2) (+ v 2) (+ v 2) (+ v 2) (+ v 2))) (* (- r v) (- r v) (- r v) (- r v) u u u u u u u u (+ v 2) (+ v 2) (+ v 2) (+ v 2) (+ v 2) (+ v 2) (+ v 2) (+ v 2) (+ v 2) (+ v 2)) (* 4 (- r v) (- r v) (- r v) (- r v) u u u u u u (+ v 2) (+ v 2) (+ v 2) (+ v 2) (+ v 2) (+ v 2) (+ v 2) (+ v 2))) (* (- r v) (- r v) (- r v) (- r v) u u u u u u (+ v 2) (+ v 2) (+ v 2) (+ v 2) (+ v 2) (+ v 2) (+ v 2)) (* 4 (- r v) (- r v) r00 u u u u u u (+ v 2) (+ v 2) (+ v 2) (+ v 2) (+ v 2) (+ v 2))) (* 4 (- r v) (- r v) (- r v) (- r v) u u (+ v 2) (+ v 2) (+ v 2) (+ v 2) (+ v 2) (+ v 2) (+ v 2))) (* 2 (- r v) (- r v) (- r v) (- r v) u u u u u u u u u00 (+ v 2) (+ v 2) (+ v 2) (+ v 2) (+ v 2) (+ v 2) (+ v 2) (+ v 2))) (* 2 (- r v) (- r v) u u u u u u (+ v 2) (+ v 2) (+ v 2) (+ v 2) (+ v 2) (+ v 2) v00)) (* 4 (- r v) (- r v) (- r v) (- r v) (- r v) r00 u u u u (+ v 2) (+ v 2) (+ v 2) (+ v 2) (+ v 2) (+ v 2) (+ v 2) (+ v 2) (+ v 2))) 0))
				(not (= (+ (- (+ (- (+ (- (+ (- (+ (- (+ (- (+ (- (+ (- (+ (- (+ (- (+ (- (+ (- (+ (- (+ (- (+ (- (+ (- (+ (- (+ (- (+ (- (+ (- (* (+ r u) (+ r u) (+ r u) (+ r u) (+ r u) (+ u 2) (+ u 2) (+ u 2) (+ u 2) v v v v v v v v v v00 v00) (* (+ r u) (+ r u) (+ r u) (+ r u) (+ u 2) (+ u 2) (+ u 2) (+ u 2) (+ u 2) (+ u 2) (+ u 2) (+ u 2) u00 u00 v v v v v v v v)) (* (+ r u) (+ r u) (+ r u) (+ r u) (+ u 2) (+ u 2) (+ u 2) (+ u 2) v v v v v v v v00 v00) (* 2 (+ r u) (+ r u) (+ r u) (+ r u) (+ r u) (+ r u) (+ u 2) (+ u 2) (+ u 2) (+ u 2) (+ u 2) (+ u 2) u00 v v v v v v v v v) (* 4 (+ r u) (+ r u) (+ r u) (+ r u) r00 (+ u 2) (+ u 2) (+ u 2) (+ u 2) v v v v v v v) (* 4 (+ r u) (+ r u) (+ r u) (+ r u) r00 (+ u 2) (+ u 2) (+ u 2) (+ u 2) (+ u 2) (+ u 2) (+ u 2) (+ u 2) v v v v v v v v)) (* 2 (+ r u) (+ r u) (+ u 2) (+ u 2) (+ u 2) (+ u 2) (+ u 2) (+ u 2) (+ u 2) v v v v v v)) (* 4 (+ r u) (+ r u) (+ r u) r00 (+ u 2) (+ u 2) v v v v v v v)) (* 2 (+ r u) (+ u 2) (+ u 2) (+ u 2) (+ u 2) v v v v v v v00)) (* 4 (+ r u) (+ r u) (+ r u) (+ r u) (+ r u) (+ r u) r00 (+ u 2) (+ u 2) (+ u 2) (+ u 2) (+ u 2) (+ u 2) v v v v v v v v v)) (* 2 (+ r u) (+ r u) (+ r u) (+ r u) (+ u 2) (+ u 2) (+ u 2) (+ u 2) (+ u 2) v v v v v v v) (* 4 (+ r u) (+ r u) (+ r u) (+ r u) (+ r u) (+ u 2) (+ u 2) (+ u 2) (+ u 2) v v v v v v v) (* 2 (+ r u) (+ r u) (+ r u) (+ r u) (+ u 2) (+ u 2) (+ u 2) (+ u 2) (+ u 2) (+ u 2) (+ u 2) (+ u 2) (+ u 2) v v v v v v v v)) (* 2 (+ r u) (+ r u) (+ r u) (+ u 2) (+ u 2) (+ u 2) (+ u 2) (+ u 2) (+ u 2) v v v v v v v v v) (* 2 (+ r u) (+ r u) (+ r u) (+ u 2) (+ u 2) u00 v v v v v v v)) (* 2 (+ r u) (+ r u) (+ r u) (+ r u) (+ u 2) (+ u 2) (+ u 2) (+ u 2) (+ u 2) (+ u 2) (+ u 2) (+ u 2) v v v v v v v v v00) (* 4 (+ r u) (+ r u) (+ r u) (+ u 2) (+ u 2) (+ u 2) (+ u 2) (+ u 2) (+ u 2) v v v v v v) (* (+ r u) (+ r u) (+ r u) (+ u 2) (+ u 2) v v v v v v v v v)) (* 2 (+ r u) (+ r u) (+ r u) (+ u 2) (+ u 2) v v v v v v v v) (* 2 (+ r u) (+ r u) (+ r u) (+ r u) (+ u 2) (+ u 2) (+ u 2) (+ u 2) u00 v v v v v v v)) (* (+ r u) (+ u 2) (+ u 2) (+ u 2) (+ u 2) v v v v v v v v) (* (+ r u) (+ r u) (+ u 2) (+ u 2) (+ u 2) (+ u 2) (+ u 2) (+ u 2) v v v v v v v v)) (* 2 (+ r u) (+ u 2) (+ u 2) (+ u 2) (+ u 2) v v v v v v v) (* 2 (+ r u) (+ r u) (+ u 2) (+ u 2) (+ u 2) (+ u 2) (+ u 2) (+ u 2) v v v v v v v) (* (+ r u) (+ r u) (+ r u) (+ r u) (+ u 2) (+ u 2) (+ u 2) (+ u 2) (+ u 2) (+ u 2) (+ u 2) (+ u 2) v v v v v v v v v00 v00)) (* (+ r u) (+ r u) (+ r u) (+ u 2) (+ u 2) u00 u00 v v v v v v v) (* 2 (+ r u) (+ r u) (+ r u) (+ r u) (+ r u) (+ r u) (+ u 2) (+ u 2) (+ u 2) (+ u 2) (+ u 2) (+ u 2) (+ u 2) v v v v v v v v v) (* (+ r u) (+ r u) (+ r u) (+ u 2) (+ u 2) (+ u 2) (+ u 2) (+ u 2) (+ u 2) v v v v v v v v v v) (* 2 (+ r u) (+ r u) (+ r u) (+ u 2) (+ u 2) (+ u 2) (+ u 2) (+ u 2) (+ u 2) v v v v v v v v v00) (* (+ r u) (+ r u) (+ u 2) (+ u 2) (+ u 2) (+ u 2) (+ u 2) (+ u 2) u00 u00 v v v v v v)) (* (+ r u) (+ r u) (+ r u) (+ r u) (+ r u) (+ u 2) (+ u 2) (+ u 2) (+ u 2) (+ u 2) (+ u 2) v v v v v v v v v)) (* 2 (+ r u) (+ r u) (+ r u) (+ u 2) (+ u 2) v v v v v v v v00)) (* 2 (+ r u) (+ r u) (+ r u) (+ r u) (+ u 2) (+ u 2) (+ u 2) (+ u 2) (+ u 2) (+ u 2) (+ u 2) (+ u 2) v v v v v v v v v)) (* 2 (+ r u) (+ r u) (+ r u) (+ r u) (+ r u) (+ u 2) (+ u 2) (+ u 2) (+ u 2) (+ u 2) v v v v v v v v v) (* (+ r u) (+ r u) (+ r u) (+ r u) (+ u 2) (+ u 2) (+ u 2) (+ u 2) u00 u00 v v v v v v v) (* 2 (+ r u) (+ r u) (+ r u) (+ r u) (+ r u) (+ r u) (+ u 2) (+ u 2) (+ u 2) (+ u 2) (+ u 2) (+ u 2) v v v v v v v v v v00)) (* 2 (+ r u) (+ r u) (+ r u) (+ r u) (+ u 2) (+ u 2) (+ u 2) (+ u 2) v v v v v v v v)) (* (+ r u) (+ r u) (+ r u) (+ r u) (+ u 2) (+ u 2) (+ u 2) (+ u 2) v v v v v v v v v)) (* 2 (+ r u) (+ r u) (+ r u) (+ r u) (+ r u) (+ u 2) (+ u 2) (+ u 2) (+ u 2) u00 v v v v v v v v v)) (* 2 (+ r u) (+ r u) (+ r u) (+ u 2) (+ u 2) (+ u 2) (+ u 2) (+ u 2) (+ u 2) (+ u 2) v v v v v v v v) (* 2 (+ r u) (+ r u) (+ r u) (+ u 2) (+ u 2) (+ u 2) v v v v v v v)) (* 2 (+ r u) (+ r u) (+ r u) (+ u 2) (+ u 2) (+ u 2) (+ u 2) (+ u 2) (+ u 2) u00 v v v v v v v v)) (* (+ r u) (+ r u) (+ r u) (+ u 2) (+ u 2) (+ u 2) (+ u 2) (+ u 2) (+ u 2) u00 u00 v v v v v v v v) (* (+ r u) (+ u 2) (+ u 2) (+ u 2) (+ u 2) u00 u00 v v v v v v) (* 2 (+ r u) (+ r u) (+ r u) (+ r u) (+ r u) (+ u 2) (+ u 2) (+ u 2) (+ u 2) v v v v v v v v v v00)) (* 2 (+ r u) (+ u 2) (+ u 2) (+ u 2) (+ u 2) u00 v v v v v v)) (* 2 (+ r u) (+ u 2) (+ u 2) (+ u 2) (+ u 2) (+ u 2) v v v v v v) (* (+ r u) (+ r u) (+ r u) (+ r u) (+ r u) (+ u 2) (+ u 2) (+ u 2) (+ u 2) u00 u00 v v v v v v v v v)) (* (+ r u) (+ r u) (+ r u) (+ u 2) (+ u 2) (+ u 2) (+ u 2) (+ u 2) (+ u 2) v v v v v v v v v00 v00) (* (+ r u) (+ r u) (+ r u) (+ r u) (+ r u) (+ r u) (+ u 2) (+ u 2) (+ u 2) (+ u 2) (+ u 2) (+ u 2) (+ u 2) (+ u 2) v v v v v v v v v)) (* (+ r u) (+ r u) (+ r u) (+ r u) (+ r u) (+ u 2) (+ u 2) (+ u 2) (+ u 2) v v v v v v v v v v v)) (* (+ r u) (+ r u) (+ u 2) (+ u 2) (+ u 2) (+ u 2) (+ u 2) (+ u 2) v v v v v v v00 v00) (* 2 (+ r u) (+ r u) (+ r u) (+ r u) (+ r u) (+ u 2) (+ u 2) (+ u 2) (+ u 2) v v v v v v v v v v)) (* 4 (+ r u) (+ r u) (+ r u) (+ r u) (+ r u) (+ r u) (+ u 2) (+ u 2) (+ u 2) (+ u 2) v v v v v v v v v) (* 2 (+ r u) (+ r u) (+ r u) (+ r u) (+ u 2) (+ u 2) (+ u 2) (+ u 2) v v v v v v v v00)) (* 2 (+ r u) (+ r u) (+ u 2) (+ u 2) (+ u 2) (+ u 2) (+ u 2) (+ u 2) u00 v v v v v v) (* (+ r u) (+ r u) (+ r u) (+ u 2) (+ u 2) (+ u 2) (+ u 2) v v v v v v v) (* (+ r u) (+ u 2) (+ u 2) (+ u 2) (+ u 2) v v v v v v v00 v00) (* (+ r u) (+ r u) (+ r u) (+ u 2) (+ u 2) (+ u 2) (+ u 2) (+ u 2) (+ u 2) (+ u 2) (+ u 2) v v v v v v v v) (* (+ r u) (+ r u) (+ r u) (+ r u) (+ u 2) (+ u 2) (+ u 2) (+ u 2) (+ u 2) (+ u 2) (+ u 2) (+ u 2) (+ u 2) (+ u 2) v v v v v v v v) (* 4 (+ r u) r00 (+ u 2) (+ u 2) (+ u 2) (+ u 2) v v v v v v) (* (+ r u) (+ r u) (+ r u) (+ u 2) (+ u 2) v v v v v v v v00 v00)) (* (+ r u) (+ r u) (+ r u) (+ r u) (+ r u) (+ r u) (+ u 2) (+ u 2) (+ u 2) (+ u 2) (+ u 2) (+ u 2) u00 u00 v v v v v v v v v) (* 4 (+ r u) (+ r u) (+ r u) (+ r u) (+ r u) (+ r u) (+ r u) (+ u 2) (+ u 2) (+ u 2) (+ u 2) (+ u 2) (+ u 2) v v v v v v v v v) (* 4 (+ r u) (+ r u) (+ u 2) (+ u 2) (+ u 2) (+ u 2) v v v v v v)) (* (+ r u) (+ u 2) (+ u 2) (+ u 2) (+ u 2) (+ u 2) (+ u 2) v v v v v v) (* (+ r u) (+ r u) (+ u 2) (+ u 2) (+ u 2) (+ u 2) (+ u 2) (+ u 2) (+ u 2) (+ u 2) v v v v v v)) (* 4 (+ r u) (+ r u) (+ r u) (+ r u) (+ r u) (+ u 2) (+ u 2) (+ u 2) (+ u 2) (+ u 2) (+ u 2) (+ u 2) (+ u 2) v v v v v v v v) (* (+ r u) (+ r u) (+ r u) (+ r u) (+ r u) (+ r u) (+ u 2) (+ u 2) (+ u 2) (+ u 2) (+ u 2) (+ u 2) v v v v v v v v v v v)) (* 4 (+ r u) (+ r u) (+ r u) r00 (+ u 2) (+ u 2) (+ u 2) (+ u 2) (+ u 2) (+ u 2) v v v v v v v v) (* (+ r u) (+ r u) (+ r u) (+ r u) (+ r u) (+ r u) (+ u 2) (+ u 2) (+ u 2) (+ u 2) (+ u 2) (+ u 2) v v v v v v v v v v00 v00) (* 2 (+ r u) (+ r u) (+ r u) (+ r u) (+ r u) (+ r u) (+ u 2) (+ u 2) (+ u 2) (+ u 2) (+ u 2) (+ u 2) v v v v v v v v v v)) (* (+ r u) (+ r u) (+ r u) (+ r u) (+ u 2) (+ u 2) (+ u 2) (+ u 2) (+ u 2) (+ u 2) (+ u 2) (+ u 2) v v v v v v v v v v) (* 4 (+ r u) (+ r u) (+ r u) (+ r u) (+ u 2) (+ u 2) (+ u 2) (+ u 2) (+ u 2) (+ u 2) v v v v v v v v)) (* (+ r u) (+ r u) (+ r u) (+ r u) (+ u 2) (+ u 2) (+ u 2) (+ u 2) (+ u 2) (+ u 2) v v v v v v v) (* 4 (+ r u) (+ r u) r00 (+ u 2) (+ u 2) (+ u 2) (+ u 2) (+ u 2) (+ u 2) v v v v v v)) (* 4 (+ r u) (+ r u) (+ r u) (+ r u) (+ u 2) (+ u 2) v v v v v v v)) (* 2 (+ r u) (+ r u) (+ r u) (+ r u) (+ u 2) (+ u 2) (+ u 2) (+ u 2) (+ u 2) (+ u 2) (+ u 2) (+ u 2) u00 v v v v v v v v)) (* 2 (+ r u) (+ r u) (+ u 2) (+ u 2) (+ u 2) (+ u 2) (+ u 2) (+ u 2) v v v v v v v00)) (* 4 (+ r u) (+ r u) (+ r u) (+ r u) (+ r u) r00 (+ u 2) (+ u 2) (+ u 2) (+ u 2) v v v v v v v v v)) 0))
			)
		)
	)
)
(check-sat)
(get-proof)
(exit)
